p cnf 42 119
a 12 23 0
e 1 2 3 4 5 6 7 8 9 10 11 13 14 15 16 17 18 19 20 21 22 24 25 26 27 28 29 30 31 32 33 34 35 36 37 38 39 40 41 42 0
-3 1 0
-3 -2 0
-1 2 3 0
5 3 0
5 -4 0
-3 4 -5 0
-7 2 0
-7 -6 0
-2 6 7 0
8 3 0
8 7 0
-3 -7 -8 0
-5 -8 -9 0
5 8 -9 0
-5 8 9 0
5 -8 9 0
-10 -6 -11 0
10 6 -11 0
-10 6 11 0
10 -6 11 0
13 10 0
13 10 0
-10 -13 0
-14 -13 0
-14 -1 0
13 1 14 0
15 12 0
15 14 0
-12 -14 -15 0
16 11 0
16 15 0
-11 -15 -16 0
2 -1 -17 0
-2 1 -17 0
2 1 17 0
-2 -1 17 0
-6 4 -18 0
6 -4 -18 0
-6 -4 18 0
6 4 18 0
-17 18 -19 0
17 -18 -19 0
-17 -18 19 0
17 18 19 0
-20 16 0
-20 19 0
-16 -19 20 0
4 -21 -22 0
-4 21 -22 0
4 21 22 0
-4 -21 22 0
-25 23 0
-25 -24 0
-23 24 25 0
26 10 0
26 -25 0
-10 25 -26 0
27 7 0
27 23 0
-7 -23 -27 0
-28 24 0
-28 27 0
-24 -27 28 0
-30 -28 0
-30 29 0
28 -29 30 0
-31 -11 0
-31 -30 0
11 30 31 0
32 -7 0
32 31 0
7 -31 -32 0
33 24 0
33 29 0
-24 -29 -33 0
-32 33 -34 0
32 -33 -34 0
-32 -33 34 0
32 33 34 0
-26 -34 -35 0
26 34 -35 0
-26 34 35 0
26 -34 35 0
-22 -35 -36 0
22 35 -36 0
-22 35 36 0
22 -35 36 0
-20 -36 -37 0
20 36 -37 0
-20 36 37 0
20 -36 37 0
-38 9 0
-38 37 0
-9 -37 38 0
-39 -15 0
-39 -15 0
15 39 0
40 -18 0
40 27 0
18 -27 -40 0
-39 40 -41 0
39 -40 -41 0
-39 -40 41 0
39 40 41 0
42 -38 0
42 41 0
38 -41 -42 0
-36 20 3 -32 -1 -40 0
-5 -17 32 0
36 -12 5 -2 -30 0
-32 -17 4 -42 9 0
-13 4 41 -7 -12 33 32 0
-25 26 5 7 0
25 29 -15 38 -37 0
-34 10 2 0
-8 -19 -26 -24 42 -15 -14 0
13 -4 23 -18 26 -31 0
-18 -9 -28 17 39 -24 -11 0
42 0
